c A SAT instance generated from a 3-CNF formula that had 43 clauses and 10 variables
p cnf 10 43
-6 -5 2 0
9 2 -3 0
8 7 -9 0
1 -4 -10 0
10 -3 -8 0
-7 -5 3 0
-10 -6 5 0
-8 -9 6 0
2 8 -4 0
8 6 7 0
3 -5 7 0
-1 -5 7 0
8 -3 -7 0
-1 -9 4 0
-6 -7 3 0
1 -10 -2 0
-1 8 5 0
4 -8 7 0
-6 3 -7 0
6 -3 -8 0
-7 -1 -3 0
-6 -1 9 0
9 -7 -1 0
1 -6 7 0
9 -4 1 0
-7 -1 -9 0
-4 1 -9 0
7 -9 -1 0
6 -5 -4 0
8 -7 2 0
1 7 -10 0
10 -3 -7 0
-8 1 -9 0
2 -9 8 0
10 -6 -8 0
6 -7 -2 0
-3 -1 6 0
-4 -8 -6 0
2 4 -3 0
-1 -5 -4 0
3 9 -5 0
5 -3 8 0
5 4 10 0
